Route #1: 3 86 93 103 90 64 75 91
Route #2: 44 1 23 59 18 66
Route #3: 15 89 88 27 52
Route #4: 63 9 124 82 113
Route #5: 67 39 43 84 25 35 77
Route #6: 60 57 13 56 62 30
Route #7: 20 19 6 29 45 22 54 7
Route #8: 119 80 98 68 106 5 123 53
Route #9: 87 121 94 111 4 70 127 47
Route #10: 24 74 14 117 115 122 128
Route #11: 107 36 26 126 71 108 100
Route #12: 16 12 114 73 72 112 32
Route #13: 96 95 49 116 92 104 10 79 76 85
Route #14: 65 105 11 61 55 40 41
Route #15: 110 17 101 58 48 2 34 21 33 46
Route #16: 125 83 109 69 97 31 102 81
Route #17: 51 120 8 37 42 99
Route #18: 38 118 28 50 78
Cost 30953
